Maximize
F - f1 - f2

Subject to
F - 8y31 - 2y105 - 4y119 - 2y219 - 8y80 - 4y101 - 8y89 - 4y235 - 4y77 - 2y29 - 2y192 - 6y155 - 2y213 - 2y22 - 8y115 - 4y145 - 2y249 - 8y98 - 2y253 - 8y64 - 8y142 - 6y97 - 2y26 = 0
f1 - 0.005138s31 - 0.005138s105 - 0.005138s119 - 0.005138s219 - 0.005138s80 - 0.005138s101 - 0.005138s89 - 0.005138s235 - 0.005138s77 - 0.005138s29 - 0.005138s192 - 0.005138s155 - 0.005138s213 - 0.005138s22 - 0.005138s115 - 0.005138s145 - 0.005138s249 - 0.005138s98 - 0.005138s253 - 0.005138s64 - 0.005138s142 - 0.005138s97 - 0.005138s26  = 0
f2 - 2.28y31 - 1.01y105 - 2.35y119 - 1.02y219 - 1.04y80 - 0.96y101 - 0.97y89 - 0.89y235 - 0.90y77 - 0.80y29 - 0.81y192 - 0.85y155 - 2.17y213 - 0.72y22 - 0.61y115 - 0.08y145 - 0.13y249 - 0.03y98 - 0.02y253 - 0.35y64 - 0.12y142 - 0.18y97 - 0.20y26 = 0

x3x119x1 + x3x219x1 + x3x80x1 + x3x101x1 + x3x192x1 + x3x22x1 + x3x145x1 + x3x98x1 + x3x64x1 + x3x142x1 + x3x97x1 
<= 1
x228x64x1 + x228x142x1 + x228x97x1 
<= 2
x186x219x1 + x186x80x1 + x186x101x1 + x186x192x1 + x186x22x1 + x186x145x1 + x186x98x1 + x186x64x1 + x186x142x1 + x186x97x1 
<= 2
x204x253x2 + x204x97x2 + x204x26x2 
<= 2
x193x31x3 + x193x105x3 + x193x80x3 + x193x101x3 + x193x89x3 + x193x235x3 + x193x29x3 + x193x155x3 + x193x249x3 + x193x98x3 + x193x253x3 + x193x26x3 
<= 2
x81x105x3 + x81x80x3 + x81x101x3 + x81x89x3 + x81x235x3 + x81x29x3 + x81x155x3 + x81x249x3 + x81x98x3 + x81x253x3 + x81x26x3 
<= 1
x127x31x3 + x127x29x3 + x127x155x3 + x127x249x3 + x127x98x3 + x127x253x3 + x127x26x3 
<= 1

- x31x119x1 - x31x145x1 - x31x98x1 - x31x64x1 - x31x142x1 - x31x97x1 
= 0

x193x31x3 + x127x31x3 
- x31x0x3
- x31x249x3 - x31x98x3 - x31x253x3 - x31x26x3 
= 0



x193x105x3 + x81x105x3 
- x105x0x3
- x105x80x3 - x105x101x3 - x105x89x3 - x105x235x3 - x105x29x3 - x105x155x3 - x105x249x3 - x105x98x3 - x105x253x3 - x105x26x3 
= 0

x3x119x1 + x31x119x1 
- x119x0x1
- x119x145x1 - x119x98x1 - x119x64x1 - x119x142x1 - x119x97x1 
= 0



x3x219x1 + x186x219x1 
- x219x0x1
- x219x80x1 - x219x101x1 - x219x192x1 - x219x22x1 - x219x145x1 - x219x98x1 - x219x64x1 - x219x142x1 - x219x97x1 
= 0

- x219x89x2 - x219x235x2 - x219x77x2 - x219x155x2 - x219x115x2 - x219x253x2 - x219x97x2 - x219x26x2 
= 0


x3x80x1 + x186x80x1 + x219x80x1 
- x80x0x1
- x80x192x1 - x80x22x1 - x80x145x1 - x80x98x1 - x80x64x1 - x80x142x1 - x80x97x1 
= 0

x193x80x3 + x81x80x3 + x105x80x3 
- x80x0x3
- x80x89x3 - x80x235x3 - x80x29x3 - x80x155x3 - x80x249x3 - x80x98x3 - x80x253x3 - x80x26x3 
= 0

x3x101x1 + x186x101x1 + x219x101x1 
- x101x0x1
- x101x192x1 - x101x22x1 - x101x145x1 - x101x98x1 - x101x64x1 - x101x142x1 - x101x97x1 
= 0

x193x101x3 + x81x101x3 + x105x101x3 
- x101x0x3
- x101x89x3 - x101x235x3 - x101x29x3 - x101x155x3 - x101x249x3 - x101x98x3 - x101x253x3 - x101x26x3 
= 0


x219x89x2 
- x89x0x2
- x89x77x2 - x89x155x2 - x89x115x2 - x89x253x2 - x89x97x2 - x89x26x2 
= 0
x193x89x3 + x81x89x3 + x105x89x3 + x80x89x3 + x101x89x3 
- x89x0x3
- x89x29x3 - x89x155x3 - x89x249x3 - x89x98x3 - x89x253x3 - x89x26x3 
= 0


x219x235x2 
- x235x0x2
- x235x77x2 - x235x155x2 - x235x115x2 - x235x253x2 - x235x97x2 - x235x26x2 
= 0
x193x235x3 + x81x235x3 + x105x235x3 + x80x235x3 + x101x235x3 
- x235x0x3
- x235x29x3 - x235x155x3 - x235x249x3 - x235x98x3 - x235x253x3 - x235x26x3 
= 0


x219x77x2 + x89x77x2 + x235x77x2 
- x77x0x2
- x77x155x2 - x77x115x2 - x77x253x2 - x77x97x2 - x77x26x2 
= 0




x193x29x3 + x81x29x3 + x127x29x3 + x105x29x3 + x80x29x3 + x101x29x3 + x89x29x3 + x235x29x3 
- x29x0x3
- x29x155x3 - x29x249x3 - x29x98x3 - x29x253x3 - x29x26x3 
= 0

x3x192x1 + x186x192x1 + x219x192x1 + x80x192x1 + x101x192x1 
- x192x0x1
- x192x22x1 - x192x145x1 - x192x98x1 - x192x64x1 - x192x142x1 - x192x97x1 
= 0




x219x155x2 + x89x155x2 + x235x155x2 + x77x155x2 
- x155x0x2
- x155x115x2 - x155x253x2 - x155x97x2 - x155x26x2 
= 0
x193x155x3 + x81x155x3 + x127x155x3 + x105x155x3 + x80x155x3 + x101x155x3 + x89x155x3 + x235x155x3 + x29x155x3 
- x155x0x3
- x155x249x3 - x155x98x3 - x155x253x3 - x155x26x3 
= 0



- x213x253x2 - x213x97x2 - x213x26x2 
= 0


x3x22x1 + x186x22x1 + x219x22x1 + x80x22x1 + x101x22x1 + x192x22x1 
- x22x0x1
- x22x98x1 - x22x64x1 - x22x142x1 - x22x97x1 
= 0




x219x115x2 + x89x115x2 + x235x115x2 + x77x115x2 + x155x115x2 
- x115x0x2
- x115x253x2 - x115x97x2 - x115x26x2 
= 0


x3x145x1 + x186x145x1 + x31x145x1 + x119x145x1 + x219x145x1 + x80x145x1 + x101x145x1 + x192x145x1 
- x145x0x1
- x145x98x1 - x145x64x1 - x145x142x1 - x145x97x1 
= 0





x193x249x3 + x81x249x3 + x127x249x3 + x31x249x3 + x105x249x3 + x80x249x3 + x101x249x3 + x89x249x3 + x235x249x3 + x29x249x3 + x155x249x3 
- x249x0x3
- x249x98x3 - x249x253x3 - x249x26x3 
= 0

x3x98x1 + x186x98x1 + x31x98x1 + x119x98x1 + x219x98x1 + x80x98x1 + x101x98x1 + x192x98x1 + x22x98x1 + x145x98x1 
- x98x0x1
- x98x142x1 - x98x97x1 
= 0

x193x98x3 + x81x98x3 + x127x98x3 + x31x98x3 + x105x98x3 + x80x98x3 + x101x98x3 + x89x98x3 + x235x98x3 + x29x98x3 + x155x98x3 + x249x98x3 
- x98x0x3
- x98x253x3 - x98x26x3 
= 0


x204x253x2 + x219x253x2 + x89x253x2 + x235x253x2 + x77x253x2 + x155x253x2 + x213x253x2 + x115x253x2 
- x253x0x2
- x253x97x2 - x253x26x2 
= 0
x193x253x3 + x81x253x3 + x127x253x3 + x31x253x3 + x105x253x3 + x80x253x3 + x101x253x3 + x89x253x3 + x235x253x3 + x29x253x3 + x155x253x3 + x249x253x3 + x98x253x3 
- x253x0x3
- x253x26x3 
= 0

x3x64x1 + x228x64x1 + x186x64x1 + x31x64x1 + x119x64x1 + x219x64x1 + x80x64x1 + x101x64x1 + x192x64x1 + x22x64x1 + x145x64x1 
- x64x0x1

= 0



x3x142x1 + x228x142x1 + x186x142x1 + x31x142x1 + x119x142x1 + x219x142x1 + x80x142x1 + x101x142x1 + x192x142x1 + x22x142x1 + x145x142x1 + x98x142x1 
- x142x0x1
- x142x97x1 
= 0



x3x97x1 + x228x97x1 + x186x97x1 + x31x97x1 + x119x97x1 + x219x97x1 + x80x97x1 + x101x97x1 + x192x97x1 + x22x97x1 + x145x97x1 + x98x97x1 + x142x97x1 
- x97x0x1

= 0
x204x97x2 + x219x97x2 + x89x97x2 + x235x97x2 + x77x97x2 + x155x97x2 + x213x97x2 + x115x97x2 + x253x97x2 
- x97x0x2

= 0



x204x26x2 + x219x26x2 + x89x26x2 + x235x26x2 + x77x26x2 + x155x26x2 + x213x26x2 + x115x26x2 + x253x26x2 
- x26x0x2

= 0
x193x26x3 + x81x26x3 + x127x26x3 + x31x26x3 + x105x26x3 + x80x26x3 + x101x26x3 + x89x26x3 + x235x26x3 + x29x26x3 + x155x26x3 + x249x26x3 + x98x26x3 + x253x26x3 
- x26x0x3

= 0

1y31 = 0
1y31 - x193x31x3 - x127x31x3 = 0
2y105 - x193x105x3 - x81x105x3 = 0
2y119 - x3x119x1 - x31x119x1 = 0
1y219 - x3x219x1 - x186x219x1 = 0
1y219 = 0
1y80 - x3x80x1 - x186x80x1 - x219x80x1 = 0
1y80 - x193x80x3 - x81x80x3 - x105x80x3 = 0
1y101 - x3x101x1 - x186x101x1 - x219x101x1 = 0
1y101 - x193x101x3 - x81x101x3 - x105x101x3 = 0
1y89 - x219x89x2 = 0
1y89 - x193x89x3 - x81x89x3 - x105x89x3 - x80x89x3 - x101x89x3 = 0
1y235 - x219x235x2 = 0
1y235 - x193x235x3 - x81x235x3 - x105x235x3 - x80x235x3 - x101x235x3 = 0
2y77 - x219x77x2 - x89x77x2 - x235x77x2 = 0
2y29 - x193x29x3 - x81x29x3 - x127x29x3 - x105x29x3 - x80x29x3 - x101x29x3 - x89x29x3 - x235x29x3 = 0
2y192 - x3x192x1 - x186x192x1 - x219x192x1 - x80x192x1 - x101x192x1 = 0
1y155 - x219x155x2 - x89x155x2 - x235x155x2 - x77x155x2 = 0
1y155 - x193x155x3 - x81x155x3 - x127x155x3 - x105x155x3 - x80x155x3 - x101x155x3 - x89x155x3 - x235x155x3 - x29x155x3 = 0
2y213 = 0
2y22 - x3x22x1 - x186x22x1 - x219x22x1 - x80x22x1 - x101x22x1 - x192x22x1 = 0
2y115 - x219x115x2 - x89x115x2 - x235x115x2 - x77x115x2 - x155x115x2 = 0
2y145 - x3x145x1 - x186x145x1 - x31x145x1 - x119x145x1 - x219x145x1 - x80x145x1 - x101x145x1 - x192x145x1 = 0
2y249 - x193x249x3 - x81x249x3 - x127x249x3 - x31x249x3 - x105x249x3 - x80x249x3 - x101x249x3 - x89x249x3 - x235x249x3 - x29x249x3 - x155x249x3 = 0
1y98 - x3x98x1 - x186x98x1 - x31x98x1 - x119x98x1 - x219x98x1 - x80x98x1 - x101x98x1 - x192x98x1 - x22x98x1 - x145x98x1 = 0
1y98 - x193x98x3 - x81x98x3 - x127x98x3 - x31x98x3 - x105x98x3 - x80x98x3 - x101x98x3 - x89x98x3 - x235x98x3 - x29x98x3 - x155x98x3 - x249x98x3 = 0
1y253 - x204x253x2 - x219x253x2 - x89x253x2 - x235x253x2 - x77x253x2 - x155x253x2 - x213x253x2 - x115x253x2 = 0
1y253 - x193x253x3 - x81x253x3 - x127x253x3 - x31x253x3 - x105x253x3 - x80x253x3 - x101x253x3 - x89x253x3 - x235x253x3 - x29x253x3 - x155x253x3 - x249x253x3 - x98x253x3 = 0
2y64 - x3x64x1 - x228x64x1 - x186x64x1 - x31x64x1 - x119x64x1 - x219x64x1 - x80x64x1 - x101x64x1 - x192x64x1 - x22x64x1 - x145x64x1 = 0
2y142 - x3x142x1 - x228x142x1 - x186x142x1 - x31x142x1 - x119x142x1 - x219x142x1 - x80x142x1 - x101x142x1 - x192x142x1 - x22x142x1 - x145x142x1 - x98x142x1 = 0
1y97 - x3x97x1 - x228x97x1 - x186x97x1 - x31x97x1 - x119x97x1 - x219x97x1 - x80x97x1 - x101x97x1 - x192x97x1 - x22x97x1 - x145x97x1 - x98x97x1 - x142x97x1 = 0
1y97 - x204x97x2 - x219x97x2 - x89x97x2 - x235x97x2 - x77x97x2 - x155x97x2 - x213x97x2 - x115x97x2 - x253x97x2 = 0
1y26 - x204x26x2 - x219x26x2 - x89x26x2 - x235x26x2 - x77x26x2 - x155x26x2 - x213x26x2 - x115x26x2 - x253x26x2 = 0
1y26 - x193x26x3 - x81x26x3 - x127x26x3 - x31x26x3 - x105x26x3 - x80x26x3 - x101x26x3 - x89x26x3 - x235x26x3 - x29x26x3 - x155x26x3 - x249x26x3 - x98x26x3 - x253x26x3 = 0

s204 - s253 + 8.745343z204z253z2 <= 7.19
s204 - s97 + 8.770640z204z97z2 <= 7.19
s204 - s26 + 8.763067z204z26z2 <= 7.19
s3 - s119 + 8.107245z3z119z1 <= 6.78
s3 - s219 + 7.961652z3z219z1 <= 6.78
s3 - s80 + 7.955095z3z80z1 <= 6.78
s3 - s101 + 7.974096z3z101z1 <= 6.78
s3 - s192 + 7.994017z3z192z1 <= 6.78
s3 - s22 + 8.005754z3z22z1 <= 6.78
s3 - s145 + 8.271728z3z145z1 <= 6.78
s3 - s98 + 8.299791z3z98z1 <= 6.78
s3 - s64 + 8.334556z3z64z1 <= 6.78
s3 - s142 + 8.332096z3z142z1 <= 6.78
s3 - s97 + 8.338045z3z97z1 <= 6.78
s193 - s31 + 8.016414z193z31z3 <= 6.67
s193 - s105 + 7.875015z193z105z3 <= 6.67
s193 - s80 + 7.855680z193z80z3 <= 6.67
s193 - s101 + 7.877628z193z101z3 <= 6.67
s193 - s89 + 7.868329z193z89z3 <= 6.67
s193 - s235 + 7.890634z193z235z3 <= 6.67
s193 - s29 + 7.905113z193z29z3 <= 6.67
s193 - s155 + 7.881487z193z155z3 <= 6.67
s193 - s249 + 8.209616z193z249z3 <= 6.67
s193 - s98 + 8.212585z193z98z3 <= 6.67
s193 - s253 + 8.225750z193z253z3 <= 6.67
s193 - s26 + 8.242090z193z26z3 <= 6.67
s228 - s64 + 8.869964z228z64z1 <= 7.30
s228 - s142 + 8.863994z228z142z1 <= 7.30
s228 - s97 + 8.869688z228z97z1 <= 7.30
s186 - s219 + 7.987833z186z219z1 <= 6.85
s186 - s80 + 7.985897z186z80z1 <= 6.85
s186 - s101 + 7.998923z186z101z1 <= 6.85
s186 - s192 + 8.021154z186z192z1 <= 6.85
s186 - s22 + 8.034461z186z22z1 <= 6.85
s186 - s145 + 8.284284z186z145z1 <= 6.85
s186 - s98 + 8.312190z186z98z1 <= 6.85
s186 - s64 + 8.346658z186z64z1 <= 6.85
s186 - s142 + 8.344644z186z142z1 <= 6.85
s186 - s97 + 8.350706z186z97z1 <= 6.85
s81 - s105 + 7.957317z81z105z3 <= 6.81
s81 - s80 + 7.941640z81z80z3 <= 6.81
s81 - s101 + 7.960977z81z101z3 <= 6.81
s81 - s89 + 7.953563z81z89z3 <= 6.81
s81 - s235 + 7.973681z81z235z3 <= 6.81
s81 - s29 + 7.988396z81z29z3 <= 6.81
s81 - s155 + 7.968896z81z155z3 <= 6.81
s81 - s249 + 8.292106z81z249z3 <= 6.81
s81 - s98 + 8.294606z81z98z3 <= 6.81
s81 - s253 + 8.307728z81z253z3 <= 6.81
s81 - s26 + 8.323611z81z26z3 <= 6.81
s127 - s31 + 7.957942z127z31z3 <= 6.92
s127 - s29 + 8.228660z127z29z3 <= 6.92
s127 - s155 + 8.251323z127z155z3 <= 6.92
s127 - s249 + 8.299954z127z249z3 <= 6.92
s127 - s98 + 8.314098z127z98z3 <= 6.92
s127 - s253 + 8.326237z127z253z3 <= 6.92
s127 - s26 + 8.355669z127z26z3 <= 6.92
s31 - s119 + 9.094907z31z119z1 <= 8.08
s31 - s145 + 9.473842z31z145z1 <= 8.08
s31 - s249 + 9.473728z31z249z3 <= 8.08
s31 - s98 + 9.489335z31z98z1 <= 8.08
s31 - s98 + 9.489335z31z98z3 <= 8.08
s31 - s253 + 9.500898z31z253z3 <= 8.08
s31 - s64 + 9.461866z31z64z1 <= 8.08
s31 - s142 + 9.521613z31z142z1 <= 8.08
s31 - s97 + 9.530679z31z97z1 <= 8.08
s31 - s26 + 9.531614z31z26z3 <= 8.08
s105 - s80 + 9.147712z105z80z3 <= 8.11
s105 - s101 + 9.123333z105z101z3 <= 8.11
s105 - s89 + 9.139814z105z89z3 <= 8.11
s105 - s235 + 9.128856z105z235z3 <= 8.11
s105 - s29 + 9.143333z105z29z3 <= 8.11
s105 - s155 + 9.157140z105z155z3 <= 8.11
s105 - s249 + 9.465403z105z249z3 <= 8.11
s105 - s98 + 9.464275z105z98z3 <= 8.11
s105 - s253 + 9.476849z105z253z3 <= 8.11
s105 - s26 + 9.488358z105z26z3 <= 8.11
s119 - s145 + 9.536885z119z145z1 <= 8.13
s119 - s98 + 9.551901z119z98z1 <= 8.13
s119 - s64 + 9.522145z119z64z1 <= 8.13
s119 - s142 + 9.583970z119z142z1 <= 8.13
s119 - s97 + 9.593081z119z97z1 <= 8.13
s219 - s80 + 9.158856z219z80z1 <= 8.14
s219 - s101 + 9.153334z219z101z1 <= 8.14
s219 - s89 + 9.153334z219z89z2 <= 8.14
s219 - s235 + 9.166667z219z235z2 <= 8.14
s219 - s77 + 9.161082z219z77z2 <= 8.14
s219 - s192 + 9.173334z219z192z1 <= 8.14
s219 - s155 + 9.173994z219z155z2 <= 8.14
s219 - s22 + 9.187140z219z22z1 <= 8.14
s219 - s115 + 9.209602z219z115z2 <= 8.14
s219 - s145 + 9.481760z219z145z1 <= 8.14
s219 - s98 + 9.511424z219z98z1 <= 8.14
s219 - s253 + 9.523898z219z253z2 <= 8.14
s219 - s64 + 9.569004z219z64z1 <= 8.14
s219 - s142 + 9.540556z219z142z1 <= 8.14
s219 - s97 + 9.544860z219z97z1 <= 8.14
s219 - s97 + 9.544860z219z97z2 <= 8.14
s219 - s26 + 9.534687z219z26z2 <= 8.14
s80 - s89 + 9.183333z80z89z3 <= 8.17
s80 - s235 + 9.212164z80z235z3 <= 8.17
s80 - s29 + 9.223748z80z29z3 <= 8.17
s80 - s192 + 9.210552z80z192z1 <= 8.17
s80 - s155 + 9.198284z80z155z3 <= 8.17
s80 - s22 + 9.220772z80z22z1 <= 8.17
s80 - s145 + 9.529011z80z145z1 <= 8.17
s80 - s249 + 9.560669z80z249z3 <= 8.17
s80 - s98 + 9.558730z80z98z1 <= 8.17
s80 - s98 + 9.558730z80z98z3 <= 8.17
s80 - s253 + 9.571110z80z253z3 <= 8.17
s80 - s64 + 9.617462z80z64z1 <= 8.17
s80 - s142 + 9.587506z80z142z1 <= 8.17
s80 - s97 + 9.591637z80z97z1 <= 8.17
s80 - s26 + 9.581231z80z26z3 <= 8.17
s101 - s89 + 9.198856z101z89z3 <= 8.18
s101 - s235 + 9.193334z101z235z3 <= 8.18
s101 - s29 + 9.207488z101z29z3 <= 8.18
s101 - s192 + 9.204038z101z192z1 <= 8.18
s101 - s155 + 9.213994z101z155z3 <= 8.18
s101 - s22 + 9.218873z101z22z1 <= 8.18
s101 - s145 + 9.509310z101z145z1 <= 8.18
s101 - s249 + 9.540863z101z249z3 <= 8.18
s101 - s98 + 9.539011z101z98z1 <= 8.18
s101 - s98 + 9.539011z101z98z3 <= 8.18
s101 - s253 + 9.551424z101z253z3 <= 8.18
s101 - s64 + 9.597878z101z64z1 <= 8.18
s101 - s142 + 9.567929z101z142z1 <= 8.18
s101 - s97 + 9.572145z101z97z1 <= 8.18
s101 - s26 + 9.561867z101z26z3 <= 8.18
s89 - s77 + 9.231082z89z77z2 <= 8.21
s89 - s29 + 9.250552z89z29z3 <= 8.21
s89 - s155 + 9.231082z89z155z2 <= 8.21
s89 - s155 + 9.231082z89z155z3 <= 8.21
s89 - s115 + 9.276999z89z115z2 <= 8.21
s89 - s249 + 9.588653z89z249z3 <= 8.21
s89 - s98 + 9.586416z89z98z3 <= 8.21
s89 - s253 + 9.598730z89z253z2 <= 8.21
s89 - s253 + 9.598730z89z253z3 <= 8.21
s89 - s97 + 9.619010z89z97z2 <= 8.21
s89 - s26 + 9.608498z89z26z2 <= 8.21
s89 - s26 + 9.608498z89z26z3 <= 8.21
s235 - s77 + 9.229428z235z77z2 <= 8.22
s235 - s29 + 9.234907z235z29z3 <= 8.22
s235 - s155 + 9.258873z235z155z2 <= 8.22
s235 - s155 + 9.258873z235z155z3 <= 8.22
s235 - s115 + 9.264722z235z115z2 <= 8.22
s235 - s249 + 9.568840z235z249z3 <= 8.22
s235 - s98 + 9.566667z235z98z3 <= 8.22
s235 - s253 + 9.579011z235z253z2 <= 8.22
s235 - s253 + 9.579011z235z253z3 <= 8.22
s235 - s97 + 9.599474z235z97z2 <= 8.22
s235 - s26 + 9.589083z235z26z2 <= 8.22
s235 - s26 + 9.589083z235z26z3 <= 8.22
s77 - s155 + 9.269814z77z155z2 <= 8.24
s77 - s115 + 9.288534z77z115z2 <= 8.24
s77 - s253 + 9.607696z77z253z2 <= 8.24
s77 - s97 + 9.627929z77z97z2 <= 8.24
s77 - s26 + 9.617418z77z26z2 <= 8.24
s29 - s155 + 9.342688z29z155z3 <= 8.30
s29 - s249 + 9.640000z29z249z3 <= 8.30
s29 - s98 + 9.637112z29z98z3 <= 8.30
s29 - s253 + 9.649285z29z253z3 <= 8.30
s29 - s26 + 9.658392z29z26z3 <= 8.30
s192 - s22 + 9.354907z192z22z1 <= 8.34
s192 - s145 + 9.665030z192z145z1 <= 8.34
s192 - s98 + 9.694839z192z98z1 <= 8.34
s192 - s64 + 9.758676z192z64z1 <= 8.34
s192 - s142 + 9.722565z192z142z1 <= 8.34
s192 - s97 + 9.726264z192z97z1 <= 8.34
s155 - s115 + 9.421463z155z115z2 <= 8.36
s155 - s249 + 9.742041z155z249z3 <= 8.36
s155 - s98 + 9.738652z155z98z3 <= 8.36
s155 - s253 + 9.750669z155z253z2 <= 8.36
s155 - s253 + 9.750669z155z253z3 <= 8.36
s155 - s97 + 9.769770z155z97z2 <= 8.36
s155 - s26 + 9.758719z155z26z2 <= 8.36
s155 - s26 + 9.758719z155z26z3 <= 8.36
s213 - s253 + 9.761441z213z253z2 <= 8.36
s213 - s97 + 9.790916z213z97z2 <= 8.36
s213 - s26 + 9.793333z213z26z2 <= 8.36
s22 - s98 + 9.794902z22z98z1 <= 8.44
s22 - s64 + 9.861690z22z64z1 <= 8.44
s22 - s142 + 9.821808z22z142z1 <= 8.44
s22 - s97 + 9.825169z22z97z1 <= 8.44
s115 - s253 + 9.790992z115z253z2 <= 8.46
s115 - s97 + 9.809285z115z97z2 <= 8.46
s115 - s26 + 9.797968z115z26z2 <= 8.46
s145 - s98 + 9.769814z145z98z1 <= 8.74
s145 - s64 + 9.860185z145z64z1 <= 8.74
s145 - s142 + 9.800369z145z142z1 <= 8.74
s145 - s97 + 9.806666z145z97z1 <= 8.74
s249 - s98 + 9.791082z249z98z3 <= 8.77
s249 - s253 + 9.798285z249z253z3 <= 8.77
s249 - s26 + 9.831464z249z26z3 <= 8.77
s98 - s253 + 9.823334z98z253z3 <= 8.81
s98 - s142 + 9.843994z98z142z1 <= 8.81
s98 - s97 + 9.852164z98z97z1 <= 8.81
s98 - s26 + 9.852688z98z26z3 <= 8.81
s253 - s97 + 9.879814z253z97z2 <= 8.85
s253 - s26 + 9.883333z253z26z2 <= 8.85
s253 - s26 + 9.883333z253z26z3 <= 8.85
s142 - s97 + 9.929428z142z97z1 <= 8.92

x204x253x2 - 1z204z253z2 <= 0
x204x97x2 - 1z204z97z2 <= 0
x204x26x2 - 1z204z26z2 <= 0
x3x119x1 - 2z3z119z1 <= 0
x3x219x1 - 1z3z219z1 <= 0
x3x80x1 - 1z3z80z1 <= 0
x3x101x1 - 1z3z101z1 <= 0
x3x192x1 - 2z3z192z1 <= 0
x3x22x1 - 2z3z22z1 <= 0
x3x145x1 - 2z3z145z1 <= 0
x3x98x1 - 1z3z98z1 <= 0
x3x64x1 - 2z3z64z1 <= 0
x3x142x1 - 2z3z142z1 <= 0
x3x97x1 - 1z3z97z1 <= 0
x193x31x3 - 1z193z31z3 <= 0
x193x105x3 - 2z193z105z3 <= 0
x193x80x3 - 1z193z80z3 <= 0
x193x101x3 - 1z193z101z3 <= 0
x193x89x3 - 1z193z89z3 <= 0
x193x235x3 - 1z193z235z3 <= 0
x193x29x3 - 2z193z29z3 <= 0
x193x155x3 - 1z193z155z3 <= 0
x193x249x3 - 2z193z249z3 <= 0
x193x98x3 - 1z193z98z3 <= 0
x193x253x3 - 1z193z253z3 <= 0
x193x26x3 - 1z193z26z3 <= 0
x228x64x1 - 2z228z64z1 <= 0
x228x142x1 - 2z228z142z1 <= 0
x228x97x1 - 1z228z97z1 <= 0
x186x219x1 - 1z186z219z1 <= 0
x186x80x1 - 1z186z80z1 <= 0
x186x101x1 - 1z186z101z1 <= 0
x186x192x1 - 2z186z192z1 <= 0
x186x22x1 - 2z186z22z1 <= 0
x186x145x1 - 2z186z145z1 <= 0
x186x98x1 - 1z186z98z1 <= 0
x186x64x1 - 2z186z64z1 <= 0
x186x142x1 - 2z186z142z1 <= 0
x186x97x1 - 1z186z97z1 <= 0
x81x105x3 - 2z81z105z3 <= 0
x81x80x3 - 1z81z80z3 <= 0
x81x101x3 - 1z81z101z3 <= 0
x81x89x3 - 1z81z89z3 <= 0
x81x235x3 - 1z81z235z3 <= 0
x81x29x3 - 2z81z29z3 <= 0
x81x155x3 - 1z81z155z3 <= 0
x81x249x3 - 2z81z249z3 <= 0
x81x98x3 - 1z81z98z3 <= 0
x81x253x3 - 1z81z253z3 <= 0
x81x26x3 - 1z81z26z3 <= 0
x127x31x3 - 1z127z31z3 <= 0
x127x29x3 - 2z127z29z3 <= 0
x127x155x3 - 1z127z155z3 <= 0
x127x249x3 - 2z127z249z3 <= 0
x127x98x3 - 1z127z98z3 <= 0
x127x253x3 - 1z127z253z3 <= 0
x127x26x3 - 1z127z26z3 <= 0
x31x119x1 - 2z31z119z1 <= 0
x31x145x1 - 2z31z145z1 <= 0
x31x249x3 - 2z31z249z3 <= 0
x31x98x1 - 1z31z98z1 <= 0
x31x98x3 - 1z31z98z3 <= 0
x31x253x3 - 1z31z253z3 <= 0
x31x64x1 - 2z31z64z1 <= 0
x31x142x1 - 2z31z142z1 <= 0
x31x97x1 - 1z31z97z1 <= 0
x31x26x3 - 1z31z26z3 <= 0
x31x0x1 <= 1
x31x0x3 <= 1
x105x80x3 - 1z105z80z3 <= 0
x105x101x3 - 1z105z101z3 <= 0
x105x89x3 - 1z105z89z3 <= 0
x105x235x3 - 1z105z235z3 <= 0
x105x29x3 - 2z105z29z3 <= 0
x105x155x3 - 1z105z155z3 <= 0
x105x249x3 - 2z105z249z3 <= 0
x105x98x3 - 1z105z98z3 <= 0
x105x253x3 - 1z105z253z3 <= 0
x105x26x3 - 1z105z26z3 <= 0
x105x0x3 <= 2
x119x145x1 - 2z119z145z1 <= 0
x119x98x1 - 1z119z98z1 <= 0
x119x64x1 - 2z119z64z1 <= 0
x119x142x1 - 2z119z142z1 <= 0
x119x97x1 - 1z119z97z1 <= 0
x119x0x1 <= 2
x219x80x1 - 1z219z80z1 <= 0
x219x101x1 - 1z219z101z1 <= 0
x219x89x2 - 1z219z89z2 <= 0
x219x235x2 - 1z219z235z2 <= 0
x219x77x2 - 2z219z77z2 <= 0
x219x192x1 - 2z219z192z1 <= 0
x219x155x2 - 1z219z155z2 <= 0
x219x22x1 - 2z219z22z1 <= 0
x219x115x2 - 2z219z115z2 <= 0
x219x145x1 - 2z219z145z1 <= 0
x219x98x1 - 1z219z98z1 <= 0
x219x253x2 - 1z219z253z2 <= 0
x219x64x1 - 2z219z64z1 <= 0
x219x142x1 - 2z219z142z1 <= 0
x219x97x1 - 1z219z97z1 <= 0
x219x97x2 - 1z219z97z2 <= 0
x219x26x2 - 1z219z26z2 <= 0
x219x0x1 <= 1
x219x0x2 <= 1
x80x89x3 - 1z80z89z3 <= 0
x80x235x3 - 1z80z235z3 <= 0
x80x29x3 - 2z80z29z3 <= 0
x80x192x1 - 2z80z192z1 <= 0
x80x155x3 - 1z80z155z3 <= 0
x80x22x1 - 2z80z22z1 <= 0
x80x145x1 - 2z80z145z1 <= 0
x80x249x3 - 2z80z249z3 <= 0
x80x98x1 - 1z80z98z1 <= 0
x80x98x3 - 1z80z98z3 <= 0
x80x253x3 - 1z80z253z3 <= 0
x80x64x1 - 2z80z64z1 <= 0
x80x142x1 - 2z80z142z1 <= 0
x80x97x1 - 1z80z97z1 <= 0
x80x26x3 - 1z80z26z3 <= 0
x80x0x1 <= 1
x80x0x3 <= 1
x101x89x3 - 1z101z89z3 <= 0
x101x235x3 - 1z101z235z3 <= 0
x101x29x3 - 2z101z29z3 <= 0
x101x192x1 - 2z101z192z1 <= 0
x101x155x3 - 1z101z155z3 <= 0
x101x22x1 - 2z101z22z1 <= 0
x101x145x1 - 2z101z145z1 <= 0
x101x249x3 - 2z101z249z3 <= 0
x101x98x1 - 1z101z98z1 <= 0
x101x98x3 - 1z101z98z3 <= 0
x101x253x3 - 1z101z253z3 <= 0
x101x64x1 - 2z101z64z1 <= 0
x101x142x1 - 2z101z142z1 <= 0
x101x97x1 - 1z101z97z1 <= 0
x101x26x3 - 1z101z26z3 <= 0
x101x0x1 <= 1
x101x0x3 <= 1
x89x77x2 - 2z89z77z2 <= 0
x89x29x3 - 2z89z29z3 <= 0
x89x155x2 - 1z89z155z2 <= 0
x89x155x3 - 1z89z155z3 <= 0
x89x115x2 - 2z89z115z2 <= 0
x89x249x3 - 2z89z249z3 <= 0
x89x98x3 - 1z89z98z3 <= 0
x89x253x2 - 1z89z253z2 <= 0
x89x253x3 - 1z89z253z3 <= 0
x89x97x2 - 1z89z97z2 <= 0
x89x26x2 - 1z89z26z2 <= 0
x89x26x3 - 1z89z26z3 <= 0
x89x0x2 <= 1
x89x0x3 <= 1
x235x77x2 - 2z235z77z2 <= 0
x235x29x3 - 2z235z29z3 <= 0
x235x155x2 - 1z235z155z2 <= 0
x235x155x3 - 1z235z155z3 <= 0
x235x115x2 - 2z235z115z2 <= 0
x235x249x3 - 2z235z249z3 <= 0
x235x98x3 - 1z235z98z3 <= 0
x235x253x2 - 1z235z253z2 <= 0
x235x253x3 - 1z235z253z3 <= 0
x235x97x2 - 1z235z97z2 <= 0
x235x26x2 - 1z235z26z2 <= 0
x235x26x3 - 1z235z26z3 <= 0
x235x0x2 <= 1
x235x0x3 <= 1
x77x155x2 - 1z77z155z2 <= 0
x77x115x2 - 2z77z115z2 <= 0
x77x253x2 - 1z77z253z2 <= 0
x77x97x2 - 1z77z97z2 <= 0
x77x26x2 - 1z77z26z2 <= 0
x77x0x2 <= 2
x29x155x3 - 1z29z155z3 <= 0
x29x249x3 - 2z29z249z3 <= 0
x29x98x3 - 1z29z98z3 <= 0
x29x253x3 - 1z29z253z3 <= 0
x29x26x3 - 1z29z26z3 <= 0
x29x0x3 <= 2
x192x22x1 - 2z192z22z1 <= 0
x192x145x1 - 2z192z145z1 <= 0
x192x98x1 - 1z192z98z1 <= 0
x192x64x1 - 2z192z64z1 <= 0
x192x142x1 - 2z192z142z1 <= 0
x192x97x1 - 1z192z97z1 <= 0
x192x0x1 <= 2
x155x115x2 - 2z155z115z2 <= 0
x155x249x3 - 2z155z249z3 <= 0
x155x98x3 - 1z155z98z3 <= 0
x155x253x2 - 1z155z253z2 <= 0
x155x253x3 - 1z155z253z3 <= 0
x155x97x2 - 1z155z97z2 <= 0
x155x26x2 - 1z155z26z2 <= 0
x155x26x3 - 1z155z26z3 <= 0
x155x0x2 <= 1
x155x0x3 <= 1
x213x253x2 - 1z213z253z2 <= 0
x213x97x2 - 1z213z97z2 <= 0
x213x26x2 - 1z213z26z2 <= 0
x213x0x2 <= 2
x22x98x1 - 1z22z98z1 <= 0
x22x64x1 - 2z22z64z1 <= 0
x22x142x1 - 2z22z142z1 <= 0
x22x97x1 - 1z22z97z1 <= 0
x22x0x1 <= 2
x115x253x2 - 1z115z253z2 <= 0
x115x97x2 - 1z115z97z2 <= 0
x115x26x2 - 1z115z26z2 <= 0
x115x0x2 <= 2
x145x98x1 - 1z145z98z1 <= 0
x145x64x1 - 2z145z64z1 <= 0
x145x142x1 - 2z145z142z1 <= 0
x145x97x1 - 1z145z97z1 <= 0
x145x0x1 <= 2
x249x98x3 - 1z249z98z3 <= 0
x249x253x3 - 1z249z253z3 <= 0
x249x26x3 - 1z249z26z3 <= 0
x249x0x3 <= 2
x98x253x3 - 1z98z253z3 <= 0
x98x142x1 - 2z98z142z1 <= 0
x98x97x1 - 1z98z97z1 <= 0
x98x26x3 - 1z98z26z3 <= 0
x98x0x1 <= 1
x98x0x3 <= 1
x253x97x2 - 1z253z97z2 <= 0
x253x26x2 - 1z253z26z2 <= 0
x253x26x3 - 1z253z26z3 <= 0
x253x0x2 <= 1
x253x0x3 <= 1
x64x0x1 <= 2
x142x97x1 - 1z142z97z1 <= 0
x142x0x1 <= 2
x97x0x1 <= 1
x97x0x2 <= 1
x26x0x2 <= 1
x26x0x3 <= 1

Bounds
s204 = 7.188766
s3 = 6.782147
s193 = 6.672256
s228 = 7.304907
s186 = 6.849108
s81 = 6.813404
s14 = 7.654867
s138 = 7.585674
s127 = 6.917390
s201 = 7.864038
s268 = 7.925388
s52 = 7.978333
s91 = 7.977018
s224 = 8.013371
s171 = 7.944718
7.080000 <= s31 <= 8.080000
7.110000 <= s105 <= 8.110000
7.130000 <= s119 <= 8.130000
7.140000 <= s219 <= 8.140000
7.170000 <= s80 <= 8.170000
7.180000 <= s101 <= 8.180000
7.210000 <= s89 <= 8.210000
7.220000 <= s235 <= 8.220000
7.240000 <= s77 <= 8.240000
7.300000 <= s29 <= 8.300000
7.340000 <= s192 <= 8.340000
7.360000 <= s155 <= 8.360000
7.360000 <= s213 <= 8.360000
7.440000 <= s22 <= 8.440000
7.460000 <= s115 <= 8.460000
7.740000 <= s145 <= 8.740000
7.770000 <= s249 <= 8.770000
7.810000 <= s98 <= 8.810000
7.850000 <= s253 <= 8.850000
7.880000 <= s64 <= 8.880000
7.920000 <= s142 <= 8.920000
7.950000 <= s97 <= 8.950000
7.960000 <= s26 <= 8.960000

General
x204x253x2 x204x97x2 x204x26x2 
x3x119x1 x3x219x1 x3x80x1 x3x101x1 x3x192x1 x3x22x1 x3x145x1 x3x98x1 x3x64x1 x3x142x1 x3x97x1 
x193x31x3 x193x105x3 x193x80x3 x193x101x3 x193x89x3 x193x235x3 x193x29x3 x193x155x3 x193x249x3 x193x98x3 x193x253x3 x193x26x3 
x228x64x1 x228x142x1 x228x97x1 
x186x219x1 x186x80x1 x186x101x1 x186x192x1 x186x22x1 x186x145x1 x186x98x1 x186x64x1 x186x142x1 x186x97x1 
x81x105x3 x81x80x3 x81x101x3 x81x89x3 x81x235x3 x81x29x3 x81x155x3 x81x249x3 x81x98x3 x81x253x3 x81x26x3 


x127x31x3 x127x29x3 x127x155x3 x127x249x3 x127x98x3 x127x253x3 x127x26x3 






x31x119x1 x31x145x1 x31x249x3 x31x98x1 x31x98x3 x31x253x3 x31x64x1 x31x142x1 x31x97x1 x31x26x3 x31x0x1 x31x0x3 
x105x80x3 x105x101x3 x105x89x3 x105x235x3 x105x29x3 x105x155x3 x105x249x3 x105x98x3 x105x253x3 x105x26x3 x105x0x3 
x119x145x1 x119x98x1 x119x64x1 x119x142x1 x119x97x1 x119x0x1 
x219x80x1 x219x101x1 x219x89x2 x219x235x2 x219x77x2 x219x192x1 x219x155x2 x219x22x1 x219x115x2 x219x145x1 x219x98x1 x219x253x2 x219x64x1 x219x142x1 x219x97x1 x219x97x2 x219x26x2 x219x0x1 x219x0x2 
x80x89x3 x80x235x3 x80x29x3 x80x192x1 x80x155x3 x80x22x1 x80x145x1 x80x249x3 x80x98x1 x80x98x3 x80x253x3 x80x64x1 x80x142x1 x80x97x1 x80x26x3 x80x0x1 x80x0x3 
x101x89x3 x101x235x3 x101x29x3 x101x192x1 x101x155x3 x101x22x1 x101x145x1 x101x249x3 x101x98x1 x101x98x3 x101x253x3 x101x64x1 x101x142x1 x101x97x1 x101x26x3 x101x0x1 x101x0x3 
x89x77x2 x89x29x3 x89x155x2 x89x155x3 x89x115x2 x89x249x3 x89x98x3 x89x253x2 x89x253x3 x89x97x2 x89x26x2 x89x26x3 x89x0x2 x89x0x3 
x235x77x2 x235x29x3 x235x155x2 x235x155x3 x235x115x2 x235x249x3 x235x98x3 x235x253x2 x235x253x3 x235x97x2 x235x26x2 x235x26x3 x235x0x2 x235x0x3 
x77x155x2 x77x115x2 x77x253x2 x77x97x2 x77x26x2 x77x0x2 
x29x155x3 x29x249x3 x29x98x3 x29x253x3 x29x26x3 x29x0x3 
x192x22x1 x192x145x1 x192x98x1 x192x64x1 x192x142x1 x192x97x1 x192x0x1 
x155x115x2 x155x249x3 x155x98x3 x155x253x2 x155x253x3 x155x97x2 x155x26x2 x155x26x3 x155x0x2 x155x0x3 
x213x253x2 x213x97x2 x213x26x2 x213x0x2 
x22x98x1 x22x64x1 x22x142x1 x22x97x1 x22x0x1 
x115x253x2 x115x97x2 x115x26x2 x115x0x2 
x145x98x1 x145x64x1 x145x142x1 x145x97x1 x145x0x1 
x249x98x3 x249x253x3 x249x26x3 x249x0x3 
x98x253x3 x98x142x1 x98x97x1 x98x26x3 x98x0x1 x98x0x3 
x253x97x2 x253x26x2 x253x26x3 x253x0x2 x253x0x3 
x64x0x1 
x142x97x1 x142x0x1 
x97x0x1 x97x0x2 
x26x0x2 x26x0x3 

Binaries
y31 y105 y119 y219 y80 y101 y89 y235 y77 y29 y192 y155 y213 y22 y115 y145 y249 y98 y253 y64 y142 y97 y26 
z204z253z2 z204z97z2 z204z26z2 
z3z119z1 z3z219z1 z3z80z1 z3z101z1 z3z192z1 z3z22z1 z3z145z1 z3z98z1 z3z64z1 z3z142z1 z3z97z1 
z193z31z3 z193z105z3 z193z80z3 z193z101z3 z193z89z3 z193z235z3 z193z29z3 z193z155z3 z193z249z3 z193z98z3 z193z253z3 z193z26z3 
z228z64z1 z228z142z1 z228z97z1 
z186z219z1 z186z80z1 z186z101z1 z186z192z1 z186z22z1 z186z145z1 z186z98z1 z186z64z1 z186z142z1 z186z97z1 
z81z105z3 z81z80z3 z81z101z3 z81z89z3 z81z235z3 z81z29z3 z81z155z3 z81z249z3 z81z98z3 z81z253z3 z81z26z3 


z127z31z3 z127z29z3 z127z155z3 z127z249z3 z127z98z3 z127z253z3 z127z26z3 






z31z119z1 z31z145z1 z31z249z3 z31z98z1 z31z98z3 z31z253z3 z31z64z1 z31z142z1 z31z97z1 z31z26z3 
z105z80z3 z105z101z3 z105z89z3 z105z235z3 z105z29z3 z105z155z3 z105z249z3 z105z98z3 z105z253z3 z105z26z3 
z119z145z1 z119z98z1 z119z64z1 z119z142z1 z119z97z1 
z219z80z1 z219z101z1 z219z89z2 z219z235z2 z219z77z2 z219z192z1 z219z155z2 z219z22z1 z219z115z2 z219z145z1 z219z98z1 z219z253z2 z219z64z1 z219z142z1 z219z97z1 z219z97z2 z219z26z2 
z80z89z3 z80z235z3 z80z29z3 z80z192z1 z80z155z3 z80z22z1 z80z145z1 z80z249z3 z80z98z1 z80z98z3 z80z253z3 z80z64z1 z80z142z1 z80z97z1 z80z26z3 
z101z89z3 z101z235z3 z101z29z3 z101z192z1 z101z155z3 z101z22z1 z101z145z1 z101z249z3 z101z98z1 z101z98z3 z101z253z3 z101z64z1 z101z142z1 z101z97z1 z101z26z3 
z89z77z2 z89z29z3 z89z155z2 z89z155z3 z89z115z2 z89z249z3 z89z98z3 z89z253z2 z89z253z3 z89z97z2 z89z26z2 z89z26z3 
z235z77z2 z235z29z3 z235z155z2 z235z155z3 z235z115z2 z235z249z3 z235z98z3 z235z253z2 z235z253z3 z235z97z2 z235z26z2 z235z26z3 
z77z155z2 z77z115z2 z77z253z2 z77z97z2 z77z26z2 
z29z155z3 z29z249z3 z29z98z3 z29z253z3 z29z26z3 
z192z22z1 z192z145z1 z192z98z1 z192z64z1 z192z142z1 z192z97z1 
z155z115z2 z155z249z3 z155z98z3 z155z253z2 z155z253z3 z155z97z2 z155z26z2 z155z26z3 
z213z253z2 z213z97z2 z213z26z2 
z22z98z1 z22z64z1 z22z142z1 z22z97z1 
z115z253z2 z115z97z2 z115z26z2 
z145z98z1 z145z64z1 z145z142z1 z145z97z1 
z249z98z3 z249z253z3 z249z26z3 
z98z253z3 z98z142z1 z98z97z1 z98z26z3 
z253z97z2 z253z26z2 z253z26z3 

z142z97z1 



End